p cnf 1362 3068
1 2 0
3 2 0
4 2 0
5 2 0
6 2 0
7 2 0
8 2 0
9 2 0
10 2 0
11 2 0
-12 0
-13 -14 2 0
13 -14 -2 0
14 -2 -13 0
13 14 2 0
-14 0
3 15 0
4 15 0
5 15 0
6 15 0
7 15 0
8 15 0
9 15 0
10 15 0
11 15 0
-16 0
15 -17 -18 0
17 -15 -18 0
18 -15 -17 0
17 15 18 0
-18 0
4 19 0
5 19 0
6 19 0
7 19 0
8 19 0
9 19 0
10 19 0
11 19 0
-20 0
19 -21 -22 0
21 -19 -22 0
22 -19 -21 0
21 19 22 0
-22 0
5 23 0
6 23 0
7 23 0
8 23 0
9 23 0
10 23 0
11 23 0
-24 0
23 -25 -26 0
25 -23 -26 0
26 -23 -25 0
25 23 26 0
-26 0
6 27 0
7 27 0
8 27 0
9 27 0
10 27 0
11 27 0
-28 0
27 -29 -30 0
29 -27 -30 0
30 -27 -29 0
29 27 30 0
-30 0
27 -31 -32 0
31 -27 -32 0
32 -27 -31 0
31 27 32 0
-32 0
27 -33 -34 0
33 -27 -34 0
34 -27 -33 0
33 27 34 0
-34 0
27 -35 -36 0
35 -27 -36 0
36 -27 -35 0
35 27 36 0
-36 0
27 -37 -38 0
37 -27 -38 0
38 -27 -37 0
37 27 38 0
-38 0
27 -39 -40 0
39 -27 -40 0
40 -27 -39 0
39 27 40 0
-40 0
41 42 0
43 42 0
44 42 0
45 42 0
46 42 0
47 42 0
48 42 0
49 42 0
50 42 0
51 42 0
52 42 0
-53 0
42 -54 -55 0
54 -42 -55 0
55 -42 -54 0
54 42 55 0
-55 0
43 56 0
44 56 0
45 56 0
46 56 0
47 56 0
48 56 0
49 56 0
50 56 0
51 56 0
52 56 0
-57 0
56 -58 -59 0
58 -56 -59 0
59 -56 -58 0
58 56 59 0
-59 0
44 60 0
45 60 0
46 60 0
47 60 0
48 60 0
49 60 0
50 60 0
51 60 0
52 60 0
-61 0
60 -62 -63 0
62 -60 -63 0
63 -60 -62 0
62 60 63 0
-63 0
45 64 0
46 64 0
47 64 0
48 64 0
49 64 0
50 64 0
51 64 0
52 64 0
-65 0
64 -66 -67 0
66 -64 -67 0
67 -64 -66 0
66 64 67 0
-67 0
46 68 0
47 68 0
48 68 0
49 68 0
50 68 0
51 68 0
52 68 0
-69 0
68 -70 -71 0
70 -68 -71 0
71 -68 -70 0
70 68 71 0
-71 0
47 72 0
48 72 0
49 72 0
50 72 0
51 72 0
52 72 0
-73 0
72 -74 -75 0
74 -72 -75 0
75 -72 -74 0
74 72 75 0
-75 0
72 -76 -77 0
76 -72 -77 0
77 -72 -76 0
76 72 77 0
-77 0
72 -78 -79 0
78 -72 -79 0
79 -72 -78 0
78 72 79 0
-79 0
72 -80 -81 0
80 -72 -81 0
81 -72 -80 0
80 72 81 0
-81 0
72 -82 -83 0
82 -72 -83 0
83 -72 -82 0
82 72 83 0
-83 0
72 -84 -85 0
84 -72 -85 0
85 -72 -84 0
84 72 85 0
-85 0
86 87 0
88 87 0
89 87 0
90 87 0
91 87 0
92 87 0
93 87 0
-94 0
87 -95 -96 0
95 -87 -96 0
96 -87 -95 0
95 87 96 0
-96 0
88 97 0
89 97 0
90 97 0
91 97 0
92 97 0
93 97 0
-98 0
97 -99 -100 0
99 -97 -100 0
100 -97 -99 0
99 97 100 0
-100 0
89 101 0
90 101 0
91 101 0
92 101 0
93 101 0
-102 0
101 -103 -104 0
103 -101 -104 0
104 -101 -103 0
103 101 104 0
-104 0
90 105 0
91 105 0
92 105 0
93 105 0
-106 0
105 -107 -108 0
107 -105 -108 0
108 -105 -107 0
107 105 108 0
-108 0
105 -109 -110 0
109 -105 -110 0
110 -105 -109 0
109 105 110 0
-110 0
105 -111 -112 0
111 -105 -112 0
112 -105 -111 0
111 105 112 0
-112 0
105 -113 -114 0
113 -105 -114 0
114 -105 -113 0
113 105 114 0
-114 0
115 116 0
117 116 0
118 116 0
119 116 0
120 116 0
121 116 0
122 116 0
123 116 0
124 116 0
125 116 0
-126 0
116 -127 -128 0
127 -116 -128 0
128 -116 -127 0
127 116 128 0
-128 0
117 129 0
118 129 0
119 129 0
120 129 0
121 129 0
122 129 0
123 129 0
124 129 0
125 129 0
-130 0
129 -131 -132 0
131 -129 -132 0
132 -129 -131 0
131 129 132 0
-132 0
118 133 0
119 133 0
120 133 0
121 133 0
122 133 0
123 133 0
124 133 0
125 133 0
-134 0
133 -135 -136 0
135 -133 -136 0
136 -133 -135 0
135 133 136 0
-136 0
119 137 0
120 137 0
121 137 0
122 137 0
123 137 0
124 137 0
125 137 0
-138 0
137 -139 -140 0
139 -137 -140 0
140 -137 -139 0
139 137 140 0
-140 0
120 141 0
121 141 0
122 141 0
123 141 0
124 141 0
125 141 0
-142 0
141 -143 -144 0
143 -141 -144 0
144 -141 -143 0
143 141 144 0
-144 0
121 145 0
122 145 0
123 145 0
124 145 0
125 145 0
-146 0
145 -147 -148 0
147 -145 -148 0
148 -145 -147 0
147 145 148 0
-148 0
145 -149 -150 0
149 -145 -150 0
150 -145 -149 0
149 145 150 0
-150 0
145 -151 -152 0
151 -145 -152 0
152 -145 -151 0
151 145 152 0
-152 0
145 -153 -154 0
153 -145 -154 0
154 -145 -153 0
153 145 154 0
-154 0
145 -155 -156 0
155 -145 -156 0
156 -145 -155 0
155 145 156 0
-156 0
157 158 0
159 158 0
160 158 0
161 158 0
162 158 0
163 158 0
164 158 0
165 158 0
166 158 0
167 158 0
-168 0
158 -169 -170 0
169 -158 -170 0
170 -158 -169 0
169 158 170 0
-170 0
159 171 0
160 171 0
161 171 0
162 171 0
163 171 0
164 171 0
165 171 0
166 171 0
167 171 0
-172 0
171 -173 -174 0
173 -171 -174 0
174 -171 -173 0
173 171 174 0
-174 0
160 175 0
161 175 0
162 175 0
163 175 0
164 175 0
165 175 0
166 175 0
167 175 0
-176 0
175 -177 -178 0
177 -175 -178 0
178 -175 -177 0
177 175 178 0
-178 0
161 179 0
162 179 0
163 179 0
164 179 0
165 179 0
166 179 0
167 179 0
-180 0
179 -181 -182 0
181 -179 -182 0
182 -179 -181 0
181 179 182 0
-182 0
162 183 0
163 183 0
164 183 0
165 183 0
166 183 0
167 183 0
-184 0
183 -185 -186 0
185 -183 -186 0
186 -183 -185 0
185 183 186 0
-186 0
183 -187 -188 0
187 -183 -188 0
188 -183 -187 0
187 183 188 0
-188 0
183 -189 -190 0
189 -183 -190 0
190 -183 -189 0
189 183 190 0
-190 0
183 -191 -192 0
191 -183 -192 0
192 -183 -191 0
191 183 192 0
-192 0
183 -193 -194 0
193 -183 -194 0
194 -183 -193 0
193 183 194 0
-194 0
183 -195 -196 0
195 -183 -196 0
196 -183 -195 0
195 183 196 0
-196 0
197 198 0
199 198 0
200 198 0
201 198 0
202 198 0
203 198 0
204 198 0
205 198 0
206 198 0
207 198 0
-208 0
198 -209 -210 0
209 -198 -210 0
210 -198 -209 0
209 198 210 0
-210 0
199 211 0
200 211 0
201 211 0
202 211 0
203 211 0
204 211 0
205 211 0
206 211 0
207 211 0
-212 0
211 -213 -214 0
213 -211 -214 0
214 -211 -213 0
213 211 214 0
-214 0
200 215 0
201 215 0
202 215 0
203 215 0
204 215 0
205 215 0
206 215 0
207 215 0
-216 0
215 -217 -218 0
217 -215 -218 0
218 -215 -217 0
217 215 218 0
-218 0
201 219 0
202 219 0
203 219 0
204 219 0
205 219 0
206 219 0
207 219 0
-220 0
219 -221 -222 0
221 -219 -222 0
222 -219 -221 0
221 219 222 0
-222 0
202 223 0
203 223 0
204 223 0
205 223 0
206 223 0
207 223 0
-224 0
223 -225 -226 0
225 -223 -226 0
226 -223 -225 0
225 223 226 0
-226 0
203 227 0
204 227 0
205 227 0
206 227 0
207 227 0
-228 0
227 -229 -230 0
229 -227 -230 0
230 -227 -229 0
229 227 230 0
-230 0
227 -231 -232 0
231 -227 -232 0
232 -227 -231 0
231 227 232 0
-232 0
227 -233 -234 0
233 -227 -234 0
234 -227 -233 0
233 227 234 0
-234 0
227 -235 -236 0
235 -227 -236 0
236 -227 -235 0
235 227 236 0
-236 0
227 -237 -238 0
237 -227 -238 0
238 -227 -237 0
237 227 238 0
-238 0
239 240 0
241 240 0
242 240 0
243 240 0
244 240 0
245 240 0
246 240 0
247 240 0
248 240 0
-249 0
240 -250 -251 0
250 -240 -251 0
251 -240 -250 0
250 240 251 0
-251 0
241 252 0
242 252 0
243 252 0
244 252 0
245 252 0
246 252 0
247 252 0
248 252 0
-253 0
252 -254 -255 0
254 -252 -255 0
255 -252 -254 0
254 252 255 0
-255 0
242 256 0
243 256 0
244 256 0
245 256 0
246 256 0
247 256 0
248 256 0
-257 0
256 -258 -259 0
258 -256 -259 0
259 -256 -258 0
258 256 259 0
-259 0
243 260 0
244 260 0
245 260 0
246 260 0
247 260 0
248 260 0
-261 0
260 -262 -263 0
262 -260 -263 0
263 -260 -262 0
262 260 263 0
-263 0
244 264 0
245 264 0
246 264 0
247 264 0
248 264 0
-265 0
264 -266 -267 0
266 -264 -267 0
267 -264 -266 0
266 264 267 0
-267 0
245 268 0
246 268 0
247 268 0
248 268 0
-269 0
268 -270 -271 0
270 -268 -271 0
271 -268 -270 0
270 268 271 0
-271 0
268 -272 -273 0
272 -268 -273 0
273 -268 -272 0
272 268 273 0
-273 0
268 -274 -275 0
274 -268 -275 0
275 -268 -274 0
274 268 275 0
-275 0
268 -276 -277 0
276 -268 -277 0
277 -268 -276 0
276 268 277 0
-277 0
278 279 0
280 279 0
281 279 0
282 279 0
283 279 0
284 279 0
285 279 0
286 279 0
287 279 0
288 279 0
289 279 0
-290 0
279 -291 -292 0
291 -279 -292 0
292 -279 -291 0
291 279 292 0
-292 0
280 293 0
281 293 0
282 293 0
283 293 0
284 293 0
285 293 0
286 293 0
287 293 0
288 293 0
289 293 0
-294 0
293 -295 -296 0
295 -293 -296 0
296 -293 -295 0
295 293 296 0
-296 0
281 297 0
282 297 0
283 297 0
284 297 0
285 297 0
286 297 0
287 297 0
288 297 0
289 297 0
-298 0
297 -299 -300 0
299 -297 -300 0
300 -297 -299 0
299 297 300 0
-300 0
282 301 0
283 301 0
284 301 0
285 301 0
286 301 0
287 301 0
288 301 0
289 301 0
-302 0
301 -303 -304 0
303 -301 -304 0
304 -301 -303 0
303 301 304 0
-304 0
283 305 0
284 305 0
285 305 0
286 305 0
287 305 0
288 305 0
289 305 0
-306 0
305 -307 -308 0
307 -305 -308 0
308 -305 -307 0
307 305 308 0
-308 0
284 309 0
285 309 0
286 309 0
287 309 0
288 309 0
289 309 0
-310 0
309 -311 -312 0
311 -309 -312 0
312 -309 -311 0
311 309 312 0
-312 0
309 -313 -314 0
313 -309 -314 0
314 -309 -313 0
313 309 314 0
-314 0
309 -315 -316 0
315 -309 -316 0
316 -309 -315 0
315 309 316 0
-316 0
309 -317 -318 0
317 -309 -318 0
318 -309 -317 0
317 309 318 0
-318 0
309 -319 -320 0
319 -309 -320 0
320 -309 -319 0
319 309 320 0
-320 0
309 -321 -322 0
321 -309 -322 0
322 -309 -321 0
321 309 322 0
-322 0
323 324 0
325 324 0
326 324 0
327 324 0
328 324 0
329 324 0
-330 0
324 -331 -332 0
331 -324 -332 0
332 -324 -331 0
331 324 332 0
-332 0
325 333 0
326 333 0
327 333 0
328 333 0
329 333 0
-334 0
333 -335 -336 0
335 -333 -336 0
336 -333 -335 0
335 333 336 0
-336 0
326 337 0
327 337 0
328 337 0
329 337 0
-338 0
337 -339 -340 0
339 -337 -340 0
340 -337 -339 0
339 337 340 0
-340 0
327 341 0
328 341 0
329 341 0
-327 -328 -329 -341 0
341 -342 -343 0
342 -341 -343 0
343 -341 -342 0
342 341 343 0
-343 0
328 344 0
329 344 0
-328 -329 -344 0
344 -345 -346 0
345 -344 -346 0
346 -344 -345 0
345 344 346 0
-346 0
344 -347 -348 0
347 -344 -348 0
348 -344 -347 0
347 344 348 0
-348 0
349 350 0
351 350 0
352 350 0
353 350 0
354 350 0
355 350 0
356 350 0
357 350 0
358 350 0
-359 0
350 -360 -361 0
360 -350 -361 0
361 -350 -360 0
360 350 361 0
-361 0
351 362 0
352 362 0
353 362 0
354 362 0
355 362 0
356 362 0
357 362 0
358 362 0
-363 0
362 -364 -365 0
364 -362 -365 0
365 -362 -364 0
364 362 365 0
-365 0
352 366 0
353 366 0
354 366 0
355 366 0
356 366 0
357 366 0
358 366 0
-367 0
366 -368 -369 0
368 -366 -369 0
369 -366 -368 0
368 366 369 0
-369 0
353 370 0
354 370 0
355 370 0
356 370 0
357 370 0
358 370 0
-371 0
370 -372 -373 0
372 -370 -373 0
373 -370 -372 0
372 370 373 0
-373 0
370 -374 -375 0
374 -370 -375 0
375 -370 -374 0
374 370 375 0
-375 0
370 -376 -377 0
376 -370 -377 0
377 -370 -376 0
376 370 377 0
-377 0
370 -378 -379 0
378 -370 -379 0
379 -370 -378 0
378 370 379 0
-379 0
370 -380 -381 0
380 -370 -381 0
381 -370 -380 0
380 370 381 0
-381 0
370 -382 -383 0
382 -370 -383 0
383 -370 -382 0
382 370 383 0
-383 0
384 385 0
386 385 0
387 385 0
388 385 0
389 385 0
390 385 0
391 385 0
392 385 0
393 385 0
394 385 0
-395 0
-396 385 -397 0
396 -385 -397 0
397 -385 -396 0
396 385 397 0
-397 0
386 398 0
387 398 0
388 398 0
389 398 0
390 398 0
391 398 0
392 398 0
393 398 0
394 398 0
-399 0
398 -400 -401 0
400 -398 -401 0
401 -398 -400 0
400 398 401 0
-401 0
387 402 0
388 402 0
389 402 0
390 402 0
391 402 0
392 402 0
393 402 0
394 402 0
-403 0
402 -404 -405 0
404 -402 -405 0
405 -402 -404 0
404 402 405 0
-405 0
388 406 0
389 406 0
390 406 0
391 406 0
392 406 0
393 406 0
394 406 0
-407 0
406 -408 -409 0
408 -406 -409 0
409 -406 -408 0
408 406 409 0
-409 0
389 410 0
390 410 0
391 410 0
392 410 0
393 410 0
394 410 0
-411 0
410 -412 -413 0
412 -410 -413 0
413 -410 -412 0
412 410 413 0
-413 0
410 -414 -415 0
414 -410 -415 0
415 -410 -414 0
414 410 415 0
-415 0
410 -416 -417 0
416 -410 -417 0
417 -410 -416 0
416 410 417 0
-417 0
410 -418 -419 0
418 -410 -419 0
419 -410 -418 0
418 410 419 0
-419 0
410 -420 -421 0
420 -410 -421 0
421 -410 -420 0
420 410 421 0
-421 0
410 -422 -423 0
422 -410 -423 0
423 -410 -422 0
422 410 423 0
-423 0
424 425 0
426 425 0
427 425 0
428 425 0
429 425 0
430 425 0
431 425 0
432 425 0
433 425 0
434 425 0
-435 0
-436 425 -437 0
436 -425 -437 0
437 -425 -436 0
436 425 437 0
-437 0
426 438 0
427 438 0
428 438 0
429 438 0
430 438 0
431 438 0
432 438 0
433 438 0
434 438 0
-439 0
438 -440 -441 0
440 -438 -441 0
441 -438 -440 0
440 438 441 0
-441 0
427 442 0
428 442 0
429 442 0
430 442 0
431 442 0
432 442 0
433 442 0
434 442 0
-443 0
442 -444 -445 0
444 -442 -445 0
445 -442 -444 0
444 442 445 0
-445 0
428 446 0
429 446 0
430 446 0
431 446 0
432 446 0
433 446 0
434 446 0
-447 0
446 -448 -449 0
448 -446 -449 0
449 -446 -448 0
448 446 449 0
-449 0
429 450 0
430 450 0
431 450 0
432 450 0
433 450 0
434 450 0
-451 0
450 -452 -453 0
452 -450 -453 0
453 -450 -452 0
452 450 453 0
-453 0
430 454 0
431 454 0
432 454 0
433 454 0
434 454 0
-455 0
454 -456 -457 0
456 -454 -457 0
457 -454 -456 0
456 454 457 0
-457 0
454 -458 -459 0
458 -454 -459 0
459 -454 -458 0
458 454 459 0
-459 0
454 -460 -461 0
460 -454 -461 0
461 -454 -460 0
460 454 461 0
-461 0
454 -462 -463 0
462 -454 -463 0
463 -454 -462 0
462 454 463 0
-463 0
454 -464 -465 0
464 -454 -465 0
465 -454 -464 0
464 454 465 0
-465 0
466 467 0
468 467 0
469 467 0
470 467 0
471 467 0
472 467 0
473 467 0
474 467 0
475 467 0
476 467 0
477 467 0
-478 0
-479 467 -480 0
479 -467 -480 0
480 -467 -479 0
479 467 480 0
-480 0
468 481 0
469 481 0
470 481 0
471 481 0
472 481 0
473 481 0
474 481 0
475 481 0
476 481 0
477 481 0
-482 0
481 -483 -484 0
483 -481 -484 0
484 -481 -483 0
483 481 484 0
-484 0
469 485 0
470 485 0
471 485 0
472 485 0
473 485 0
474 485 0
475 485 0
476 485 0
477 485 0
-486 0
485 -487 -488 0
487 -485 -488 0
488 -485 -487 0
487 485 488 0
-488 0
470 489 0
471 489 0
472 489 0
473 489 0
474 489 0
475 489 0
476 489 0
477 489 0
-490 0
489 -491 -492 0
491 -489 -492 0
492 -489 -491 0
491 489 492 0
-492 0
471 493 0
472 493 0
473 493 0
474 493 0
475 493 0
476 493 0
477 493 0
-494 0
493 -495 -496 0
495 -493 -496 0
496 -493 -495 0
495 493 496 0
-496 0
472 497 0
473 497 0
474 497 0
475 497 0
476 497 0
477 497 0
-498 0
497 -499 -500 0
499 -497 -500 0
500 -497 -499 0
499 497 500 0
-500 0
497 -501 -502 0
501 -497 -502 0
502 -497 -501 0
501 497 502 0
-502 0
497 -503 -504 0
503 -497 -504 0
504 -497 -503 0
503 497 504 0
-504 0
497 -505 -506 0
505 -497 -506 0
506 -497 -505 0
505 497 506 0
-506 0
497 -507 -508 0
507 -497 -508 0
508 -497 -507 0
507 497 508 0
-508 0
497 -509 -510 0
509 -497 -510 0
510 -497 -509 0
509 497 510 0
-510 0
511 512 0
513 512 0
514 512 0
515 512 0
516 512 0
517 512 0
518 512 0
519 512 0
520 512 0
-521 0
-522 512 -523 0
522 -512 -523 0
523 -512 -522 0
522 512 523 0
-523 0
513 524 0
514 524 0
515 524 0
516 524 0
517 524 0
518 524 0
519 524 0
520 524 0
-525 0
524 -526 -527 0
526 -524 -527 0
527 -524 -526 0
526 524 527 0
-527 0
514 528 0
515 528 0
516 528 0
517 528 0
518 528 0
519 528 0
520 528 0
-529 0
528 -530 -531 0
530 -528 -531 0
531 -528 -530 0
530 528 531 0
-531 0
515 532 0
516 532 0
517 532 0
518 532 0
519 532 0
520 532 0
-533 0
532 -534 -535 0
534 -532 -535 0
535 -532 -534 0
534 532 535 0
-535 0
516 536 0
517 536 0
518 536 0
519 536 0
520 536 0
-537 0
536 -538 -539 0
538 -536 -539 0
539 -536 -538 0
538 536 539 0
-539 0
517 540 0
518 540 0
519 540 0
520 540 0
-541 0
540 -542 -543 0
542 -540 -543 0
543 -540 -542 0
542 540 543 0
-543 0
540 -544 -545 0
544 -540 -545 0
545 -540 -544 0
544 540 545 0
-545 0
540 -546 -547 0
546 -540 -547 0
547 -540 -546 0
546 540 547 0
-547 0
540 -548 -549 0
548 -540 -549 0
549 -540 -548 0
548 540 549 0
-549 0
550 551 0
552 551 0
553 551 0
554 551 0
555 551 0
556 551 0
557 551 0
558 551 0
-559 0
-560 551 -561 0
560 -551 -561 0
561 -551 -560 0
560 551 561 0
-561 0
552 562 0
553 562 0
554 562 0
555 562 0
556 562 0
557 562 0
558 562 0
-563 0
562 -564 -565 0
564 -562 -565 0
565 -562 -564 0
564 562 565 0
-565 0
553 566 0
554 566 0
555 566 0
556 566 0
557 566 0
558 566 0
-567 0
566 -568 -569 0
568 -566 -569 0
569 -566 -568 0
568 566 569 0
-569 0
554 570 0
555 570 0
556 570 0
557 570 0
558 570 0
-571 0
570 -572 -573 0
572 -570 -573 0
573 -570 -572 0
572 570 573 0
-573 0
555 574 0
556 574 0
557 574 0
558 574 0
-575 0
574 -576 -577 0
576 -574 -577 0
577 -574 -576 0
576 574 577 0
-577 0
556 578 0
557 578 0
558 578 0
-556 -557 -558 -578 0
578 -579 -580 0
579 -578 -580 0
580 -578 -579 0
579 578 580 0
-580 0
557 581 0
558 581 0
-557 -558 -581 0
581 -582 -583 0
582 -581 -583 0
583 -581 -582 0
582 581 583 0
-583 0
581 -584 -585 0
584 -581 -585 0
585 -581 -584 0
584 581 585 0
-585 0
586 587 0
588 587 0
589 587 0
590 587 0
591 587 0
592 587 0
593 587 0
594 587 0
595 587 0
-596 0
-597 587 -598 0
597 -587 -598 0
598 -587 -597 0
597 587 598 0
-598 0
588 599 0
589 599 0
590 599 0
591 599 0
592 599 0
593 599 0
594 599 0
595 599 0
-600 0
599 -601 -602 0
601 -599 -602 0
602 -599 -601 0
601 599 602 0
-602 0
589 603 0
590 603 0
591 603 0
592 603 0
593 603 0
594 603 0
595 603 0
-604 0
603 -605 -606 0
605 -603 -606 0
606 -603 -605 0
605 603 606 0
-606 0
590 607 0
591 607 0
592 607 0
593 607 0
594 607 0
595 607 0
-608 0
607 -609 -610 0
609 -607 -610 0
610 -607 -609 0
609 607 610 0
-610 0
591 611 0
592 611 0
593 611 0
594 611 0
595 611 0
-612 0
611 -613 -614 0
613 -611 -614 0
614 -611 -613 0
613 611 614 0
-614 0
611 -615 -616 0
615 -611 -616 0
616 -611 -615 0
615 611 616 0
-616 0
611 -617 -618 0
617 -611 -618 0
618 -611 -617 0
617 611 618 0
-618 0
611 -619 -620 0
619 -611 -620 0
620 -611 -619 0
619 611 620 0
-620 0
611 -621 -622 0
621 -611 -622 0
622 -611 -621 0
621 611 622 0
-622 0
623 624 0
625 624 0
626 624 0
627 624 0
628 624 0
629 624 0
630 624 0
631 624 0
632 624 0
633 624 0
634 624 0
-635 0
-636 624 -637 0
636 -624 -637 0
637 -624 -636 0
636 624 637 0
-637 0
625 638 0
626 638 0
627 638 0
628 638 0
629 638 0
630 638 0
631 638 0
632 638 0
633 638 0
634 638 0
-639 0
638 -640 -641 0
640 -638 -641 0
641 -638 -640 0
640 638 641 0
-641 0
626 642 0
627 642 0
628 642 0
629 642 0
630 642 0
631 642 0
632 642 0
633 642 0
634 642 0
-643 0
642 -644 -645 0
644 -642 -645 0
645 -642 -644 0
644 642 645 0
-645 0
627 646 0
628 646 0
629 646 0
630 646 0
631 646 0
632 646 0
633 646 0
634 646 0
-647 0
646 -648 -649 0
648 -646 -649 0
649 -646 -648 0
648 646 649 0
-649 0
628 650 0
629 650 0
630 650 0
631 650 0
632 650 0
633 650 0
634 650 0
-651 0
650 -652 -653 0
652 -650 -653 0
653 -650 -652 0
652 650 653 0
-653 0
629 654 0
630 654 0
631 654 0
632 654 0
633 654 0
634 654 0
-655 0
654 -656 -657 0
656 -654 -657 0
657 -654 -656 0
656 654 657 0
-657 0
630 658 0
631 658 0
632 658 0
633 658 0
634 658 0
-659 0
658 -660 -661 0
660 -658 -661 0
661 -658 -660 0
660 658 661 0
-661 0
658 -662 -663 0
662 -658 -663 0
663 -658 -662 0
662 658 663 0
-663 0
658 -664 -665 0
664 -658 -665 0
665 -658 -664 0
664 658 665 0
-665 0
658 -666 -667 0
666 -658 -667 0
667 -658 -666 0
666 658 667 0
-667 0
658 -668 -669 0
668 -658 -669 0
669 -658 -668 0
668 658 669 0
-669 0
670 671 0
672 671 0
673 671 0
674 671 0
675 671 0
676 671 0
677 671 0
678 671 0
679 671 0
-680 0
-681 671 -682 0
681 -671 -682 0
682 -671 -681 0
681 671 682 0
-682 0
672 683 0
673 683 0
674 683 0
675 683 0
676 683 0
677 683 0
678 683 0
679 683 0
-684 0
683 -685 -686 0
685 -683 -686 0
686 -683 -685 0
685 683 686 0
-686 0
673 687 0
674 687 0
675 687 0
676 687 0
677 687 0
678 687 0
679 687 0
-688 0
687 -689 -690 0
689 -687 -690 0
690 -687 -689 0
689 687 690 0
-690 0
674 691 0
675 691 0
676 691 0
677 691 0
678 691 0
679 691 0
-692 0
691 -693 -694 0
693 -691 -694 0
694 -691 -693 0
693 691 694 0
-694 0
691 -695 -696 0
695 -691 -696 0
696 -691 -695 0
695 691 696 0
-696 0
691 -697 -698 0
697 -691 -698 0
698 -691 -697 0
697 691 698 0
-698 0
691 -699 -700 0
699 -691 -700 0
700 -691 -699 0
699 691 700 0
-700 0
691 -701 -702 0
701 -691 -702 0
702 -691 -701 0
701 691 702 0
-702 0
691 -703 -704 0
703 -691 -704 0
704 -691 -703 0
703 691 704 0
-704 0
705 706 0
707 706 0
708 706 0
709 706 0
710 706 0
711 706 0
712 706 0
713 706 0
714 706 0
715 706 0
716 706 0
-717 0
-718 706 -719 0
718 -706 -719 0
719 -706 -718 0
718 706 719 0
-719 0
707 720 0
708 720 0
709 720 0
710 720 0
711 720 0
712 720 0
713 720 0
714 720 0
715 720 0
716 720 0
-721 0
720 -722 -723 0
722 -720 -723 0
723 -720 -722 0
722 720 723 0
-723 0
708 724 0
709 724 0
710 724 0
711 724 0
712 724 0
713 724 0
714 724 0
715 724 0
716 724 0
-725 0
724 -726 -727 0
726 -724 -727 0
727 -724 -726 0
726 724 727 0
-727 0
709 728 0
710 728 0
711 728 0
712 728 0
713 728 0
714 728 0
715 728 0
716 728 0
-729 0
728 -730 -731 0
730 -728 -731 0
731 -728 -730 0
730 728 731 0
-731 0
710 732 0
711 732 0
712 732 0
713 732 0
714 732 0
715 732 0
716 732 0
-733 0
732 -734 -735 0
734 -732 -735 0
735 -732 -734 0
734 732 735 0
-735 0
711 736 0
712 736 0
713 736 0
714 736 0
715 736 0
716 736 0
-737 0
736 -738 -739 0
738 -736 -739 0
739 -736 -738 0
738 736 739 0
-739 0
736 -740 -741 0
740 -736 -741 0
741 -736 -740 0
740 736 741 0
-741 0
736 -742 -743 0
742 -736 -743 0
743 -736 -742 0
742 736 743 0
-743 0
736 -744 -745 0
744 -736 -745 0
745 -736 -744 0
744 736 745 0
-745 0
736 -746 -747 0
746 -736 -747 0
747 -736 -746 0
746 736 747 0
-747 0
736 -748 -749 0
748 -736 -749 0
749 -736 -748 0
748 736 749 0
-749 0
750 751 0
752 751 0
753 751 0
754 751 0
755 751 0
756 751 0
757 751 0
758 751 0
759 751 0
760 751 0
-761 0
-762 751 -763 0
762 -751 -763 0
763 -751 -762 0
762 751 763 0
-763 0
752 764 0
753 764 0
754 764 0
755 764 0
756 764 0
757 764 0
758 764 0
759 764 0
760 764 0
-765 0
764 -766 -767 0
766 -764 -767 0
767 -764 -766 0
766 764 767 0
-767 0
753 768 0
754 768 0
755 768 0
756 768 0
757 768 0
758 768 0
759 768 0
760 768 0
-769 0
768 -770 -771 0
770 -768 -771 0
771 -768 -770 0
770 768 771 0
-771 0
754 772 0
755 772 0
756 772 0
757 772 0
758 772 0
759 772 0
760 772 0
-773 0
772 -774 -775 0
774 -772 -775 0
775 -772 -774 0
774 772 775 0
-775 0
755 776 0
756 776 0
757 776 0
758 776 0
759 776 0
760 776 0
-777 0
776 -778 -779 0
778 -776 -779 0
779 -776 -778 0
778 776 779 0
-779 0
776 -780 -781 0
780 -776 -781 0
781 -776 -780 0
780 776 781 0
-781 0
776 -782 -783 0
782 -776 -783 0
783 -776 -782 0
782 776 783 0
-783 0
776 -784 -785 0
784 -776 -785 0
785 -776 -784 0
784 776 785 0
-785 0
776 -786 -787 0
786 -776 -787 0
787 -776 -786 0
786 776 787 0
-787 0
776 -788 -789 0
788 -776 -789 0
789 -776 -788 0
788 776 789 0
-789 0
790 -791 0
792 790 0
791 -792 -790 0
1 -790 0
-1 790 0
793 -794 0
795 793 0
794 -795 -793 0
3 -793 0
-3 793 0
796 -797 0
798 796 0
797 -798 -796 0
4 -796 0
-4 796 0
799 -800 0
801 799 0
800 -801 -799 0
5 -799 0
-5 799 0
802 -803 0
804 802 0
803 -804 -802 0
6 -802 0
-6 802 0
805 -806 0
807 805 0
806 -807 -805 0
7 -805 0
-7 805 0
808 -809 0
810 808 0
809 -810 -808 0
8 -808 0
-8 808 0
811 -812 0
813 811 0
812 -813 -811 0
9 -811 0
-9 811 0
814 -815 0
816 814 0
815 -816 -814 0
10 -814 0
-10 814 0
817 -818 0
819 817 0
818 -819 -817 0
11 -817 0
-11 817 0
820 -821 0
822 820 0
821 -822 -820 0
41 -820 0
-41 820 0
823 -824 0
825 823 0
824 -825 -823 0
43 -823 0
-43 823 0
826 -827 0
828 826 0
827 -828 -826 0
44 -826 0
-44 826 0
829 -830 0
831 829 0
830 -831 -829 0
45 -829 0
-45 829 0
832 -833 0
834 832 0
833 -834 -832 0
46 -832 0
-46 832 0
835 -836 0
837 835 0
836 -837 -835 0
47 -835 0
-47 835 0
838 -839 0
840 838 0
839 -840 -838 0
48 -838 0
-48 838 0
841 -842 0
843 841 0
842 -843 -841 0
49 -841 0
-49 841 0
844 -845 0
846 844 0
845 -846 -844 0
50 -844 0
-50 844 0
847 -848 0
849 847 0
848 -849 -847 0
51 -847 0
-51 847 0
850 -851 0
852 850 0
851 -852 -850 0
52 -850 0
-52 850 0
853 -854 0
855 853 0
854 -855 -853 0
86 -853 0
-86 853 0
856 -857 0
858 856 0
857 -858 -856 0
88 -856 0
-88 856 0
859 -860 0
861 859 0
860 -861 -859 0
89 -859 0
-89 859 0
862 -863 0
864 862 0
863 -864 -862 0
90 -862 0
-90 862 0
865 -866 0
867 865 0
866 -867 -865 0
91 -865 0
-91 865 0
868 -869 0
870 868 0
869 -870 -868 0
92 -868 0
-92 868 0
871 -872 0
873 871 0
872 -873 -871 0
93 -871 0
-93 871 0
874 -875 0
876 874 0
875 -876 -874 0
115 -874 0
-115 874 0
877 -878 0
879 877 0
878 -879 -877 0
117 -877 0
-117 877 0
880 -881 0
882 880 0
881 -882 -880 0
118 -880 0
-118 880 0
883 -884 0
885 883 0
884 -885 -883 0
119 -883 0
-119 883 0
886 -887 0
888 886 0
887 -888 -886 0
120 -886 0
-120 886 0
889 -890 0
891 889 0
890 -891 -889 0
121 -889 0
-121 889 0
892 -893 0
894 892 0
893 -894 -892 0
122 -892 0
-122 892 0
895 -896 0
897 895 0
896 -897 -895 0
123 -895 0
-123 895 0
898 -899 0
900 898 0
899 -900 -898 0
124 -898 0
-124 898 0
901 -902 0
903 901 0
902 -903 -901 0
125 -901 0
-125 901 0
904 -905 0
906 904 0
905 -906 -904 0
157 -904 0
-157 904 0
907 -908 0
909 907 0
908 -909 -907 0
159 -907 0
-159 907 0
910 -911 0
912 910 0
911 -912 -910 0
160 -910 0
-160 910 0
913 -914 0
915 913 0
914 -915 -913 0
161 -913 0
-161 913 0
916 -917 0
918 916 0
917 -918 -916 0
162 -916 0
-162 916 0
919 -920 0
921 919 0
920 -921 -919 0
163 -919 0
-163 919 0
922 -923 0
924 922 0
923 -924 -922 0
164 -922 0
-164 922 0
925 -926 0
927 925 0
926 -927 -925 0
165 -925 0
-165 925 0
928 -929 0
930 928 0
929 -930 -928 0
166 -928 0
-166 928 0
931 -932 0
933 931 0
932 -933 -931 0
167 -931 0
-167 931 0
934 -935 0
936 934 0
935 -936 -934 0
197 -934 0
-197 934 0
937 -938 0
939 937 0
938 -939 -937 0
199 -937 0
-199 937 0
940 -941 0
942 940 0
941 -942 -940 0
200 -940 0
-200 940 0
943 -944 0
945 943 0
944 -945 -943 0
201 -943 0
-201 943 0
946 -947 0
948 946 0
947 -948 -946 0
202 -946 0
-202 946 0
949 -950 0
951 949 0
950 -951 -949 0
203 -949 0
-203 949 0
952 -953 0
954 952 0
953 -954 -952 0
204 -952 0
-204 952 0
955 -956 0
957 955 0
956 -957 -955 0
205 -955 0
-205 955 0
958 -959 0
960 958 0
959 -960 -958 0
206 -958 0
-206 958 0
961 -962 0
963 961 0
962 -963 -961 0
207 -961 0
-207 961 0
964 -965 0
966 964 0
965 -966 -964 0
239 -964 0
-239 964 0
967 -968 0
969 967 0
968 -969 -967 0
241 -967 0
-241 967 0
970 -971 0
972 970 0
971 -972 -970 0
242 -970 0
-242 970 0
973 -974 0
975 973 0
974 -975 -973 0
243 -973 0
-243 973 0
976 -977 0
978 976 0
977 -978 -976 0
244 -976 0
-244 976 0
979 -980 0
981 979 0
980 -981 -979 0
245 -979 0
-245 979 0
982 -983 0
984 982 0
983 -984 -982 0
246 -982 0
-246 982 0
985 -986 0
987 985 0
986 -987 -985 0
247 -985 0
-247 985 0
988 -989 0
990 988 0
989 -990 -988 0
248 -988 0
-248 988 0
991 -992 0
993 991 0
992 -993 -991 0
278 -991 0
-278 991 0
994 -995 0
996 994 0
995 -996 -994 0
280 -994 0
-280 994 0
997 -998 0
999 997 0
998 -999 -997 0
281 -997 0
-281 997 0
1000 -1001 0
1002 1000 0
1001 -1002 -1000 0
282 -1000 0
-282 1000 0
1003 -1004 0
1005 1003 0
1004 -1005 -1003 0
283 -1003 0
-283 1003 0
1006 -1007 0
1008 1006 0
1007 -1008 -1006 0
284 -1006 0
-284 1006 0
1009 -1010 0
1011 1009 0
1010 -1011 -1009 0
285 -1009 0
-285 1009 0
1012 -1013 0
1014 1012 0
1013 -1014 -1012 0
286 -1012 0
-286 1012 0
1015 -1016 0
1017 1015 0
1016 -1017 -1015 0
287 -1015 0
-287 1015 0
1018 -1019 0
1020 1018 0
1019 -1020 -1018 0
288 -1018 0
-288 1018 0
1021 -1022 0
1023 1021 0
1022 -1023 -1021 0
289 -1021 0
-289 1021 0
1024 -1025 0
1026 1024 0
1025 -1026 -1024 0
323 -1024 0
-323 1024 0
1027 -1028 0
1029 1027 0
1028 -1029 -1027 0
325 -1027 0
-325 1027 0
1030 -1031 0
1032 1030 0
1031 -1032 -1030 0
326 -1030 0
-326 1030 0
1033 -1034 0
1035 1033 0
1034 -1035 -1033 0
327 -1033 0
-327 1033 0
1036 -1037 0
1038 1036 0
1037 -1038 -1036 0
328 -1036 0
-328 1036 0
1039 -1040 0
1041 1039 0
1040 -1041 -1039 0
329 -1039 0
-329 1039 0
1042 -1043 0
1044 1042 0
1043 -1044 -1042 0
349 -1042 0
-349 1042 0
1045 -1046 0
1047 1045 0
1046 -1047 -1045 0
351 -1045 0
-351 1045 0
1048 -1049 0
1050 1048 0
1049 -1050 -1048 0
352 -1048 0
-352 1048 0
1051 -1052 0
1053 1051 0
1052 -1053 -1051 0
353 -1051 0
-353 1051 0
1054 -1055 0
1056 1054 0
1055 -1056 -1054 0
354 -1054 0
-354 1054 0
1057 -1058 0
1059 1057 0
1058 -1059 -1057 0
355 -1057 0
-355 1057 0
1060 -1061 0
1062 1060 0
1061 -1062 -1060 0
356 -1060 0
-356 1060 0
1063 -1064 0
1065 1063 0
1064 -1065 -1063 0
357 -1063 0
-357 1063 0
1066 -1067 0
1068 1066 0
1067 -1068 -1066 0
358 -1066 0
-358 1066 0
1069 -1070 0
1071 1069 0
1070 -1071 -1069 0
384 -1069 0
-384 1069 0
1072 -1073 0
1074 1072 0
1073 -1074 -1072 0
386 -1072 0
-386 1072 0
1075 -1076 0
1077 1075 0
1076 -1077 -1075 0
387 -1075 0
-387 1075 0
1078 -1079 0
1080 1078 0
1079 -1080 -1078 0
388 -1078 0
-388 1078 0
1081 -1082 0
1083 1081 0
1082 -1083 -1081 0
389 -1081 0
-389 1081 0
1084 -1085 0
1086 1084 0
1085 -1086 -1084 0
390 -1084 0
-390 1084 0
1087 -1088 0
1089 1087 0
1088 -1089 -1087 0
391 -1087 0
-391 1087 0
1090 -1091 0
1092 1090 0
1091 -1092 -1090 0
392 -1090 0
-392 1090 0
1093 -1094 0
1095 1093 0
1094 -1095 -1093 0
393 -1093 0
-393 1093 0
1096 -1097 0
1098 1096 0
1097 -1098 -1096 0
394 -1096 0
-394 1096 0
1099 -1100 0
1101 1099 0
1100 -1101 -1099 0
424 -1099 0
-424 1099 0
1102 -1103 0
1104 1102 0
1103 -1104 -1102 0
426 -1102 0
-426 1102 0
1105 -1106 0
1107 1105 0
1106 -1107 -1105 0
427 -1105 0
-427 1105 0
1108 -1109 0
1110 1108 0
1109 -1110 -1108 0
428 -1108 0
-428 1108 0
1111 -1112 0
1113 1111 0
1112 -1113 -1111 0
429 -1111 0
-429 1111 0
1114 -1115 0
1116 1114 0
1115 -1116 -1114 0
430 -1114 0
-430 1114 0
1117 -1118 0
1119 1117 0
1118 -1119 -1117 0
431 -1117 0
-431 1117 0
1120 -1121 0
1122 1120 0
1121 -1122 -1120 0
432 -1120 0
-432 1120 0
1123 -1124 0
1125 1123 0
1124 -1125 -1123 0
433 -1123 0
-433 1123 0
1126 -1127 0
1128 1126 0
1127 -1128 -1126 0
434 -1126 0
-434 1126 0
1129 -1130 0
1131 1129 0
1130 -1131 -1129 0
466 -1129 0
-466 1129 0
1132 -1133 0
1134 1132 0
1133 -1134 -1132 0
468 -1132 0
-468 1132 0
1135 -1136 0
1137 1135 0
1136 -1137 -1135 0
469 -1135 0
-469 1135 0
1138 -1139 0
1140 1138 0
1139 -1140 -1138 0
470 -1138 0
-470 1138 0
1141 -1142 0
1143 1141 0
1142 -1143 -1141 0
471 -1141 0
-471 1141 0
1144 -1145 0
1146 1144 0
1145 -1146 -1144 0
472 -1144 0
-472 1144 0
1147 -1148 0
1149 1147 0
1148 -1149 -1147 0
473 -1147 0
-473 1147 0
1150 -1151 0
1152 1150 0
1151 -1152 -1150 0
474 -1150 0
-474 1150 0
1153 -1154 0
1155 1153 0
1154 -1155 -1153 0
475 -1153 0
-475 1153 0
1156 -1157 0
1158 1156 0
1157 -1158 -1156 0
476 -1156 0
-476 1156 0
1159 -1160 0
1161 1159 0
1160 -1161 -1159 0
477 -1159 0
-477 1159 0
1162 -1163 0
1164 1162 0
1163 -1164 -1162 0
511 -1162 0
-511 1162 0
1165 -1166 0
1167 1165 0
1166 -1167 -1165 0
513 -1165 0
-513 1165 0
1168 -1169 0
1170 1168 0
1169 -1170 -1168 0
514 -1168 0
-514 1168 0
1171 -1172 0
1173 1171 0
1172 -1173 -1171 0
515 -1171 0
-515 1171 0
1174 -1175 0
1176 1174 0
1175 -1176 -1174 0
516 -1174 0
-516 1174 0
1177 -1178 0
1179 1177 0
1178 -1179 -1177 0
517 -1177 0
-517 1177 0
1180 -1181 0
1182 1180 0
1181 -1182 -1180 0
518 -1180 0
-518 1180 0
1183 -1184 0
1185 1183 0
1184 -1185 -1183 0
519 -1183 0
-519 1183 0
1186 -1187 0
1188 1186 0
1187 -1188 -1186 0
520 -1186 0
-520 1186 0
1189 -1190 0
1191 1189 0
1190 -1191 -1189 0
550 -1189 0
-550 1189 0
1192 -1193 0
1194 1192 0
1193 -1194 -1192 0
552 -1192 0
-552 1192 0
1195 -1196 0
1197 1195 0
1196 -1197 -1195 0
553 -1195 0
-553 1195 0
1198 -1199 0
1200 1198 0
1199 -1200 -1198 0
554 -1198 0
-554 1198 0
1201 -1202 0
1203 1201 0
1202 -1203 -1201 0
555 -1201 0
-555 1201 0
1204 -1205 0
1206 1204 0
1205 -1206 -1204 0
556 -1204 0
-556 1204 0
1207 -1208 0
1209 1207 0
1208 -1209 -1207 0
557 -1207 0
-557 1207 0
1210 -1211 0
1212 1210 0
1211 -1212 -1210 0
558 -1210 0
-558 1210 0
1213 -1214 0
1215 1213 0
1214 -1215 -1213 0
586 -1213 0
-586 1213 0
1216 -1217 0
1218 1216 0
1217 -1218 -1216 0
588 -1216 0
-588 1216 0
1219 -1220 0
1221 1219 0
1220 -1221 -1219 0
589 -1219 0
-589 1219 0
1222 -1223 0
1224 1222 0
1223 -1224 -1222 0
590 -1222 0
-590 1222 0
1225 -1226 0
1227 1225 0
1226 -1227 -1225 0
591 -1225 0
-591 1225 0
1228 -1229 0
1230 1228 0
1229 -1230 -1228 0
592 -1228 0
-592 1228 0
1231 -1232 0
1233 1231 0
1232 -1233 -1231 0
593 -1231 0
-593 1231 0
1234 -1235 0
1236 1234 0
1235 -1236 -1234 0
594 -1234 0
-594 1234 0
1237 -1238 0
1239 1237 0
1238 -1239 -1237 0
595 -1237 0
-595 1237 0
1240 -1241 0
1242 1240 0
1241 -1242 -1240 0
623 -1240 0
-623 1240 0
1243 -1244 0
1245 1243 0
1244 -1245 -1243 0
625 -1243 0
-625 1243 0
1246 -1247 0
1248 1246 0
1247 -1248 -1246 0
626 -1246 0
-626 1246 0
1249 -1250 0
1251 1249 0
1250 -1251 -1249 0
627 -1249 0
-627 1249 0
1252 -1253 0
1254 1252 0
1253 -1254 -1252 0
628 -1252 0
-628 1252 0
1255 -1256 0
1257 1255 0
1256 -1257 -1255 0
629 -1255 0
-629 1255 0
1258 -1259 0
1260 1258 0
1259 -1260 -1258 0
630 -1258 0
-630 1258 0
1261 -1262 0
1263 1261 0
1262 -1263 -1261 0
631 -1261 0
-631 1261 0
1264 -1265 0
1266 1264 0
1265 -1266 -1264 0
632 -1264 0
-632 1264 0
1267 -1268 0
1269 1267 0
1268 -1269 -1267 0
633 -1267 0
-633 1267 0
1270 -1271 0
1272 1270 0
1271 -1272 -1270 0
634 -1270 0
-634 1270 0
1273 -1274 0
1275 1273 0
1274 -1275 -1273 0
670 -1273 0
-670 1273 0
1276 -1277 0
1278 1276 0
1277 -1278 -1276 0
672 -1276 0
-672 1276 0
1279 -1280 0
1281 1279 0
1280 -1281 -1279 0
673 -1279 0
-673 1279 0
1282 -1283 0
1284 1282 0
1283 -1284 -1282 0
674 -1282 0
-674 1282 0
1285 -1286 0
1287 1285 0
1286 -1287 -1285 0
675 -1285 0
-675 1285 0
1288 -1289 0
1290 1288 0
1289 -1290 -1288 0
676 -1288 0
-676 1288 0
1291 -1292 0
1293 1291 0
1292 -1293 -1291 0
677 -1291 0
-677 1291 0
1294 -1295 0
1296 1294 0
1295 -1296 -1294 0
678 -1294 0
-678 1294 0
1297 -1298 0
1299 1297 0
1298 -1299 -1297 0
679 -1297 0
-679 1297 0
1300 -1301 0
1302 1300 0
1301 -1302 -1300 0
705 -1300 0
-705 1300 0
1303 -1304 0
1305 1303 0
1304 -1305 -1303 0
707 -1303 0
-707 1303 0
1306 -1307 0
1308 1306 0
1307 -1308 -1306 0
708 -1306 0
-708 1306 0
1309 -1310 0
1311 1309 0
1310 -1311 -1309 0
709 -1309 0
-709 1309 0
1312 -1313 0
1314 1312 0
1313 -1314 -1312 0
710 -1312 0
-710 1312 0
1315 -1316 0
1317 1315 0
1316 -1317 -1315 0
711 -1315 0
-711 1315 0
1318 -1319 0
1320 1318 0
1319 -1320 -1318 0
712 -1318 0
-712 1318 0
1321 -1322 0
1323 1321 0
1322 -1323 -1321 0
713 -1321 0
-713 1321 0
1324 -1325 0
1326 1324 0
1325 -1326 -1324 0
714 -1324 0
-714 1324 0
1327 -1328 0
1329 1327 0
1328 -1329 -1327 0
715 -1327 0
-715 1327 0
1330 -1331 0
1332 1330 0
1331 -1332 -1330 0
716 -1330 0
-716 1330 0
1333 -1334 0
1335 1333 0
1334 -1335 -1333 0
750 -1333 0
-750 1333 0
1336 -1337 0
1338 1336 0
1337 -1338 -1336 0
752 -1336 0
-752 1336 0
1339 -1340 0
1341 1339 0
1340 -1341 -1339 0
753 -1339 0
-753 1339 0
1342 -1343 0
1344 1342 0
1343 -1344 -1342 0
754 -1342 0
-754 1342 0
1345 -1346 0
1347 1345 0
1346 -1347 -1345 0
755 -1345 0
-755 1345 0
1348 -1349 0
1350 1348 0
1349 -1350 -1348 0
756 -1348 0
-756 1348 0
1351 -1352 0
1353 1351 0
1352 -1353 -1351 0
757 -1351 0
-757 1351 0
1354 -1355 0
1356 1354 0
1355 -1356 -1354 0
758 -1354 0
-758 1354 0
1357 -1358 0
1359 1357 0
1358 -1359 -1357 0
759 -1357 0
-759 1357 0
1360 -1361 0
1362 1360 0
1361 -1362 -1360 0
760 -1360 0
-760 1360 0
-792 0
-795 0
-798 0
801 0
-804 0
807 0
810 0
813 0
816 0
-819 0
-822 0
-825 0
-828 0
-831 0
834 0
837 0
840 0
-843 0
-846 0
-849 0
-852 0
-855 0
-858 0
-861 0
864 0
-867 0
870 0
873 0
-876 0
-879 0
882 0
-885 0
-888 0
-891 0
-894 0
-897 0
900 0
903 0
-906 0
-909 0
-912 0
915 0
918 0
-921 0
924 0
-927 0
-930 0
-933 0
-936 0
-939 0
942 0
945 0
948 0
-951 0
954 0
-957 0
-960 0
-963 0
-966 0
969 0
-972 0
-975 0
978 0
981 0
984 0
987 0
-990 0
993 0
-996 0
999 0
1002 0
1005 0
1008 0
1011 0
1014 0
1017 0
-1020 0
-1023 0
-1026 0
-1029 0
-1032 0
-1035 0
1038 0
-1041 0
1044 0
-1047 0
1050 0
-1053 0
1056 0
-1059 0
1062 0
-1065 0
-1068 0
1071 0
-1074 0
1077 0
-1080 0
-1083 0
1086 0
1089 0
1092 0
1095 0
-1098 0
1101 0
-1104 0
-1107 0
-1110 0
1113 0
-1116 0
-1119 0
1122 0
-1125 0
1128 0
1131 0
1134 0
1137 0
1140 0
-1143 0
1146 0
1149 0
1152 0
1155 0
-1158 0
1161 0
-1164 0
1167 0
1170 0
1173 0
1176 0
-1179 0
1182 0
1185 0
-1188 0
-1191 0
-1194 0
1197 0
-1200 0
1203 0
-1206 0
-1209 0
1212 0
1215 0
1218 0
1221 0
1224 0
-1227 0
-1230 0
-1233 0
1236 0
-1239 0
-1242 0
1245 0
1248 0
1251 0
1254 0
-1257 0
1260 0
1263 0
1266 0
1269 0
1272 0
-1275 0
-1278 0
1281 0
-1284 0
1287 0
-1290 0
1293 0
-1296 0
-1299 0
1302 0
-1305 0
-1308 0
1311 0
1314 0
-1317 0
-1320 0
-1323 0
1326 0
-1329 0
-1332 0
-1335 0
1338 0
1341 0
-1344 0
-1347 0
1350 0
1353 0
-1356 0
-1359 0
1362 0
13 0
54 0
95 0
127 0
169 0
209 0
250 0
291 0
331 0
360 0
-396 0
-436 0
-479 0
-522 0
-560 0
-597 0
-636 0
-681 0
-718 0
-762 0
803 -1022 0
1022 -803 0
806 -1007 0
1007 -806 0
809 -1010 0
1010 -809 0
812 -1013 0
1013 -812 0
815 -1016 0
1016 -815 0
818 -1019 0
1019 -818 0
863 -986 0
986 -863 0
866 -989 0
989 -866 0
869 -980 0
980 -869 0
872 -983 0
983 -872 0
917 -1055 0
1055 -917 0
920 -1058 0
1058 -920 0
923 -1061 0
1061 -923 0
926 -1064 0
1064 -926 0
929 -1067 0
1067 -929 0
932 -1052 0
1052 -932 0
